benchmarks_vrp/CMT12/min_c/CMT12_0.vrp
NAME: CMT12_0
TYPE: CVRP
COMMENT: 819.56 - Cluster Nr.0
DIMENSION: 13
CAPACITY: 200
EDGE_WEIGHT_TYPE: EUC_2D
NODE_COORD_TYPE: TWOD_COORDS
NODE_COORD_SECTION: 
2 45 70
4 45 65
7 42 68
8 38 68
5 35 69
10 45 68
6 35 66
13 42 66
12 42 65
9 40 69
3 38 70
11 40 66
1 40 50
DEPOT_SECTION: 
1
-1
DEMAND_SECTION: 
8 20
1 0
2 30
13 10
3 10
5 10
10 10
4 20
9 20
11 20
6 10
7 10
12 10
EOF
