benchmarks_vrp/CMT12/min_c/CMT12_0.tour
NAME: CMT12_0 solution
TYPE: TOUR
TOUR_SECTION:
1 6 5 3 8 9 7 2 10 4 13 11 12 -1
-1
EOF